DIMENSION: 76
56
41
43
1
42
64
22
73
62
2
68
30
74
28
61
21
69
47
48
36
71
60
70
20
37
5
29
45
4
75
76
67
34
46
52
27
15
57
13
54
19
8
35
7
53
14
59
11
66
65
38
58
10
31
55
25
72
39
9
12
26
17
40
32
3
44
50
18
24
49
16
51
6
33
63
23
